c Sudoku solution
p cnf 729 0
145 0
156 0
257 0
273 0
281 0
328 0
353 0
361 0
396 0
519 0
526 0
558 0
597 0
635 0
683 0
692 0
711 0
784 0
585 0
823 0
851 0
867 0
886 0
895 0
375 0
936 0
216 0
225 0
915 0
943 0
793 0
964 0
971 0
574 0
491 0
666 0
476 0
746 0
139 0
121 0
113 0
194 0
531 0
433 0
563 0
542 0
641 0
447 0
998 0
299 0
349 0
244 0
232 0
268 0
162 0
382 0
848 0
738 0
834 0
812 0
879 0
418 0
422 0
454 0
659 0
465 0
489 0
678 0
624 0
617 0
314 0
337 0
755 0
952 0
769 0
772 0
987 0
727 0
929 0
177 0
188 0
